c ---- [ banner ] ------------------------------------------------------------
c
c Kissat SAT Solver
c 
c Copyright (c) 2021-2024 Armin Biere University of Freiburg
c Copyright (c) 2019-2021 Armin Biere Johannes Kepler University Linz
c 
c Version 4.0.1 43f02cf3e992cb44653b35e5cb26f93281552ae0
c gcc (Ubuntu 13.2.0-23ubuntu4) 13.2.0 -W -Wall -O3 -DNDEBUG
c Thu Sep 12 12:27:46 CEST 2024 Linux abryzen9 6.8.0-41-generic x86_64
c
c ---- [ parsing ] -----------------------------------------------------------
c
c opened and reading DIMACS file:
c
c   /data/artifact/AMulet2.0_artifact/exp4/cnf_sopb_64/64_64_U_SP_CWT_RC_GenMul_sopb.cnf
c
c parsed 'p cnf 32704 137271' header
c closing input after reading 2718672 bytes (3 MB)
c finished parsing after 0.02 seconds
c
c ---- [ options ] -----------------------------------------------------------
c
c --stable=0                       (different from default '1')
c
c ---- [ solving ] -----------------------------------------------------------
c
c  seconds switched rate     size/glue tier1  binary           remaining
c         MB reductions conflicts size  tier2     irredundant
c          level restarts redundant glue  trail           variables
c
c *  0.02 10 0 0 0  0 0   0   0 0.0 0 0 0 0 0% 27960 109309 32701 100%
c (  0.04 12 0 0 0  0 0   0   0 0.0 0 0 0 0 0% 27960 109309 32701 100%
c .  0.05 13 0 0 0  0 0   0   0 0.0 0 0 0 0 0% 27956 109309 32701 100%
c c  0.12 18 0 0 0  0 0   0   0 0.0 0 0 0 0 0% 32343 102485 30514 93%
c d  0.13 18 0 0 0  0 0   0   0 0.0 0 0 0 0 0% 27969 102485 30514 93%
c =  0.17 18 0 0 0  0 0   0   0 0.0 0 0 0 0 0% 27945 102485 29890 91%
c d  0.17 18 0 0 0  0 0   0   0 0.0 0 0 0 0 0% 26697 102485 29890 91%
c f  0.27 20 0 0 0  0 0   0   0 0.0 0 0 0 0 0% 28162 98521 31696 97%
c e  0.40 25 0 0 0  0 0   0   0 0.0 0 0 0 0 0% 21227 103078 23117 71%
c )  0.40 25 0 0 0  0 0   0   0 0.0 0 0 0 0 0% 21227 103078 23117 71%
c {  0.41 26 0 0 0  0 0   0   0 0.0 0 0 2 6 0% 21227 103078 23117 71%
c -  0.56 26 158 0 1 273 31 1000 747 2.1 10 4 3 9 23% 21336 103071 23117 71%
c -  0.94 26 148 0 2 478 33 2000 1487 2.9 15 5 3 8 29% 21371 103070 23117 71%
c c  1.09 22 197 0 2 513 31 2506 1914 2.8 14 5 3 8 28% 22038 101738 22669 69%
c d  1.09 22 197 0 2 513 31 2506 1912 2.8 14 5 3 8 28% 21142 101738 22669 69%
c u  1.12 22 197 0 2 513 31 2506 1457 2.8 14 5 3 8 28% 19374 101738 22669 69%
c v  1.14 22 197 0 2 513 31 2506 1273 2.8 14 5 3 8 28% 19375 101738 22669 69%
c w  1.16 22 197 0 2 513 31 2506 1268 2.8 14 5 3 8 28% 19375 101738 22669 69%
c x  1.18 25 197 0 2 513 31 2506 1268 2.8 14 5 3 8 28% 19546 101351 22669 69%
c =  1.27 25 197 0 2 513 31 2506 1268 2.8 14 5 3 8 28% 19574 101339 22652 69%
c
c  seconds   switched   rate       size/glue tier1    binary           remaining
c         MB  reductions conflicts       size  tier2      irredundant
c           level restarts    redundant    glue   trail           variables
c
c d  1.28 25 197 0 2 513 31 2506 1268 2.8 14 5 3 8 28% 19542 101336 22651 69%
c t  1.29 25 197 0 2 513 31 2506 1268 2.8 14 5 3 8 28% 19541 101336 22651 69%
c f  1.33 25 197 0 2 513 31 2506 1268 2.8 14 5 3 8 28% 20915 98539 23568 72%
c u  1.41 25 197 0 2 513 31 2506 1186 2.8 14 5 3 8 28% 20904 98539 23568 72%
c v  1.43 25 197 0 2 513 31 2506 1133 2.8 14 5 3 8 28% 20904 98539 23568 72%
c w  1.44 25 197 0 2 513 31 2506 1124 2.8 14 5 3 8 28% 20904 98539 23568 72%
c x  1.45 25 197 0 2 513 31 2506 1124 2.8 14 5 3 8 28% 20907 98510 23568 72%
c =  1.52 25 197 0 2 513 31 2506 1124 2.8 14 5 3 8 28% 21777 98502 23133 71%
c d  1.52 25 197 0 2 513 31 2506 1124 2.8 14 5 3 8 28% 20881 98502 23133 71%
c f  1.56 25 197 0 2 513 31 2506 1124 2.8 14 5 3 8 28% 21008 98021 23303 71%
c -  1.77 25 180 0 3 663 31 3415 1691 3.1 16 5 3 8 30% 21030 98020 23303 71%
c -  1.98 25 214 0 4 866 31 5147 2789 2.8 15 5 3 9 29% 21117 98010 23303 71%
c -  2.30 25 208 0 5 1091 31 7147 3963 3.1 18 6 3 9 28% 21196 98003 23303 71%
c d  2.44 25 205 0 5 1173 31 7714 4479 3.2 19 6 3 9 29% 21198 97995 23292 71%
c u  2.46 25 205 0 5 1173 31 7714 3608 3.2 19 6 3 9 29% 21203 97995 23292 71%
c v  2.49 25 205 0 5 1173 31 7714 3248 3.2 19 6 3 9 29% 21205 97995 23292 71%
c w  2.53 25 205 0 5 1173 31 7714 3243 3.2 19 6 3 9 29% 21205 97995 23292 71%
c =  2.67 25 205 0 5 1173 31 7714 3243 3.2 19 6 3 9 29% 23095 97977 22347 68%
c d  2.68 25 205 0 5 1173 31 7714 3209 3.2 19 6 3 9 29% 21120 97977 22346 68%
c t  2.69 25 205 0 5 1173 31 7714 3209 3.2 19 6 3 9 29% 21031 97977 22346 68%
c
c  seconds   switched    rate       size/glue tier1    binary          remaining
c         MB  reductions  conflicts       size  tier2      irredundant
c           level  restarts    redundant    glue   trail          variables
c
c f  2.73 25 205 0 5 1173 31 7714 3209 3.2 19 6 3 9 29% 21188 97296 22580 69%
c c  2.78 25 205 0 5 1173 31 7714 3207 3.2 19 6 3 9 29% 21190 97288 22579 69%
c d  2.78 25 205 0 5 1173 31 7714 3207 3.2 19 6 3 9 29% 21188 97288 22579 69%
c u  2.81 25 205 0 5 1173 31 7714 2990 3.2 19 6 3 9 29% 21191 97288 22579 69%
c v  2.83 25 205 0 5 1173 31 7714 2901 3.2 19 6 3 9 29% 21191 97288 22579 69%
c w  2.85 25 205 0 5 1173 31 7714 2897 3.2 19 6 3 9 29% 21191 97288 22579 69%
c x  2.87 25 205 0 5 1173 31 7714 2896 3.2 19 6 3 9 29% 21198 96524 22579 69%
c =  2.98 25 205 0 5 1173 31 7714 2896 3.2 19 6 3 9 29% 21364 96518 22494 69%
c d  2.99 25 205 0 5 1173 31 7714 2895 3.2 19 6 3 9 29% 21130 96517 22494 69%
c t  3.00 25 205 0 5 1173 31 7714 2895 3.2 19 6 3 9 29% 21127 96517 22494 69%
c f  3.04 25 205 0 5 1173 31 7714 2895 3.2 19 6 3 9 29% 21163 96419 22533 69%
c -  3.27 25 238 0 6 1300 31 9383 3805 3.3 20 6 3 9 29% 21244 96404 22533 69%
c o  3.32 25 236 0 6 1326 30 10016 4301 3.3 20 6 3 9 28% 21283 96402 22533 69%
c -  3.55 25 246 0 7 1484 30 11835 5213 3.3 20 6 3 9 29% 21359 96401 22533 69%
c s  3.61 25 262 0 7 1498 30 12520 5779 3.3 20 6 3 9 29% 21408 88429 22533 69%
c e  3.69 25 262 0 7 1498 30 12520 5779 3.3 20 6 3 9 29% 19905 89749 21222 65%
c 2  3.69 25 262 0 7 1498 30 12520 5779 3.3 20 6 3 9 29% 19896 89749 21222 65%
c s  3.70 25 262 0 7 1498 30 12520 5779 3.3 20 6 3 9 29% 19910 89547 21222 65%
c e  3.70 25 262 0 7 1498 30 12520 5779 3.3 20 6 3 9 29% 19867 89579 21199 65%
c ^  3.70 25 262 0 7 1498 30 12520 5779 3.3 20 6 3 9 29% 19867 89579 21199 65%
c
c  seconds   switched    rate        size/glue tier1    binary          remaining
c         MB  reductions   conflicts       size  tier2      irredundant
c           level  restarts     redundant    glue   trail          variables
c
c -  3.99 25 247 0 8 1648 29 14480 6385 3.3 20 6 3 8 29% 19937 89575 21199 65%
c d  4.15 25 245 0 8 1743 28 15797 7543 3.3 20 6 3 8 29% 19956 89574 21187 65%
c u  4.18 25 245 0 8 1743 28 15797 6331 3.3 20 6 3 8 29% 19970 89574 21187 65%
c v  4.20 25 245 0 8 1743 28 15797 6094 3.3 20 6 3 8 29% 19970 89574 21187 65%
c w  4.22 25 245 0 8 1743 28 15797 6094 3.3 20 6 3 8 29% 19970 89574 21187 65%
c x  4.24 25 245 0 8 1743 28 15797 6094 3.3 20 6 3 8 29% 19985 89486 21187 65%
c =  4.35 25 245 0 8 1743 28 15797 6094 3.3 20 6 3 8 29% 21041 89484 20659 63%
c d  4.36 25 245 0 8 1743 28 15797 6015 3.3 20 6 3 8 29% 19809 89484 20658 63%
c t  4.37 25 245 0 8 1743 28 15797 6015 3.3 20 6 3 8 29% 19741 89484 20658 63%
c f  4.41 25 245 0 8 1743 28 15797 6015 3.3 20 6 3 8 29% 19770 89111 20758 63%
c b  4.42 25 245 0 8 1743 28 15797 6015 3.3 20 6 3 8 29% 19770 89111 20757 63%
c u  4.45 25 245 0 8 1743 28 15797 5383 3.3 20 6 3 8 29% 19776 89111 20757 63%
c v  4.47 25 245 0 8 1743 28 15797 5105 3.3 20 6 3 8 29% 19779 89111 20757 63%
c w  4.49 25 245 0 8 1743 28 15797 5103 3.3 20 6 3 8 29% 19779 89111 20757 63%
c x  4.51 25 245 0 8 1743 28 15797 5102 3.3 20 6 3 8 29% 19838 87728 20757 63%
c =  4.64 25 245 0 8 1743 28 15797 5102 3.3 20 6 3 8 29% 20204 87723 20574 63%
c d  4.65 25 245 0 8 1743 28 15797 5089 3.3 20 6 3 8 29% 19763 87723 20574 63%
c t  4.66 25 245 0 8 1743 28 15797 5089 3.3 20 6 3 8 29% 19736 87723 20574 63%
c f  4.67 25 245 0 8 1743 28 15797 5089 3.3 20 6 3 8 29% 19739 87643 20597 63%
c -  4.91 25 236 0 9 1904 27 17308 5689 3.4 21 6 3 8 29% 19775 87642 20597 63%
c
c  seconds   switched    rate        size/glue tier1    binary          remaining
c         MB  reductions   conflicts       size  tier2      irredundant
c           level  restarts     redundant    glue   trail          variables
c
c o  5.24 25 231 0 9 2111 28 20016 8134 3.3 21 6 3 8 30% 19824 87642 20597 63%
c -  5.29 25 231 0 10 2149 28 20308 7083 3.4 21 6 2 8 29% 19838 87642 20597 63%
c -  5.58 25 247 0 11 2307 27 23470 8409 3.3 21 6 2 8 29% 19970 87640 20597 63%
c s  5.74 25 249 0 11 2390 27 25025 9758 3.3 21 6 2 8 29% 20022 85909 20597 63%
c e  5.83 25 249 0 11 2390 27 25025 9758 3.3 21 6 2 8 29% 17046 90090 19065 58%
c 2  5.83 25 249 0 11 2390 27 25025 9758 3.3 21 6 2 8 29% 17038 90090 19065 58%
c s  5.84 25 249 0 11 2390 27 25025 9758 3.3 21 6 2 8 29% 17109 89431 19065 58%
c e  5.85 25 249 0 11 2390 27 25025 9758 3.3 21 6 2 8 29% 17044 89524 19027 58%
c ^  5.85 25 249 0 11 2390 27 25025 9758 3.3 21 6 2 8 29% 17044 89524 19027 58%
c -  6.00 25 252 0 12 2483 27 26787 8735 3.3 20 6 2 7 28% 17094 89523 19027 58%
c c  6.05 25 253 0 12 2490 27 26924 8863 3.3 20 6 2 7 28% 17144 89377 19003 58%
c d  6.05 25 253 0 12 2490 27 26924 8817 3.3 20 6 2 7 28% 17071 89377 18988 58%
c u  6.09 25 253 0 12 2490 27 26924 7594 3.3 20 6 2 7 28% 17081 89377 18988 58%
c v  6.12 25 253 0 12 2490 27 26924 6749 3.3 20 6 2 7 28% 17082 89377 18988 58%
c w  6.13 25 253 0 12 2490 27 26924 6744 3.3 20 6 2 7 28% 17082 89377 18988 58%
c x  6.16 25 253 0 12 2490 27 26924 6742 3.3 20 6 2 7 28% 17083 89129 18988 58%
c =  6.31 25 253 0 12 2490 27 26924 6742 3.3 20 6 2 7 28% 19927 89129 17566 54%
c d  6.32 25 253 0 12 2490 27 26924 6582 3.3 20 6 2 7 28% 17021 89129 17564 54%
c t  6.33 25 253 0 12 2490 27 26924 6582 3.3 20 6 2 7 28% 16628 89129 17564 54%
c f  6.38 25 253 0 12 2490 27 26924 6582 3.3 20 6 2 7 28% 16649 88156 17704 54%
c
c  seconds   switched     rate        size/glue tier1    binary          remaining
c         MB   reductions   conflicts       size  tier2      irredundant
c           level   restarts     redundant    glue   trail          variables
c
c u  6.41 25 253 0 12 2490 27 26924 6169 3.3 20 6 2 7 28% 16652 88156 17704 54%
c v  6.44 25 253 0 12 2490 27 26924 5976 3.3 20 6 2 7 28% 16652 88156 17704 54%
c w  6.45 25 253 0 12 2490 27 26924 5973 3.3 20 6 2 7 28% 16652 88156 17704 54%
c x  6.51 25 253 0 12 2490 27 26924 5971 3.3 20 6 2 7 28% 16710 84406 17704 54%
c =  6.67 25 253 0 12 2490 27 26924 5971 3.3 20 6 2 7 28% 18476 84402 16821 51%
c d  6.67 25 253 0 12 2490 27 26924 5904 3.3 20 6 2 7 28% 16688 84402 16821 51%
c t  6.69 25 253 0 12 2490 27 26924 5904 3.3 20 6 2 7 28% 16420 84402 16821 51%
c f  6.73 25 253 0 12 2490 27 26924 5904 3.3 20 6 2 7 28% 16426 83996 16880 52%
c -  7.06 25 246 0 13 2693 26 30253 7735 3.3 20 6 2 7 28% 16513 83996 16880 52%
c i  7.40 25 239 0 13 2953 25 32751 9973 3.2 20 6 2 7 29% 16563 83994 16879 52%
c -  7.49 25 237 0 14 3029 25 33858 9747 3.2 20 6 2 7 29% 16577 83994 16879 52%
c -  7.95 25 229 0 15 3359 25 37599 11373 3.1 20 6 2 7 29% 16663 83994 16879 52%
c o  8.25 25 222 0 15 3612 25 40323 13628 3.1 20 6 2 7 28% 16723 83994 16879 52%
c i  8.32 25 221 0 15 3675 25 40925 14165 3.1 20 6 2 7 28% 16733 83994 16876 52%
c c  8.36 25 220 0 15 3675 25 41251 14452 3.1 20 6 2 7 28% 16767 83748 16824 51%
c d  8.37 25 220 0 15 3675 25 41251 14221 3.1 20 6 2 7 28% 16653 83743 16815 51%
c d  8.37 25 220 0 15 3675 25 41251 14221 3.1 20 6 2 7 28% 16651 83743 16814 51%
c u  8.42 25 220 0 15 3675 25 41251 12236 3.1 20 6 2 7 28% 16664 83743 16814 51%
c v  8.45 25 220 0 15 3675 25 41251 11541 3.1 20 6 2 7 28% 16665 83743 16814 51%
c w  8.48 25 220 0 15 3675 25 41251 11540 3.1 20 6 2 7 28% 16665 83743 16814 51%
c
c  seconds   switched     rate         size/glue tier1    binary          remaining
c         MB   reductions   conflicts        size  tier2      irredundant
c           level   restarts      redundant    glue   trail          variables
c
c x  8.52 25 220 0 15 3675 25 41251 11536 3.1 20 6 2 7 28% 16667 78357 16814 51%
c =  8.67 25 220 0 15 3675 25 41251 11536 3.1 20 6 2 7 28% 16737 78357 16779 51%
c d  8.68 25 220 0 15 3675 25 41251 11437 3.1 20 6 2 7 28% 16646 78357 16773 51%
c t  8.69 25 220 0 15 3675 25 41251 11437 3.1 20 6 2 7 28% 16572 78357 16773 51%
c f  8.70 25 220 0 15 3675 25 41251 11437 3.1 20 6 2 7 28% 16591 78269 16787 51%
c c  8.74 25 220 0 15 3675 25 41251 11433 3.1 20 6 2 7 28% 16601 78237 16782 51%
c d  8.75 25 220 0 15 3675 25 41251 11433 3.1 20 6 2 7 28% 16591 78237 16782 51%
c u  8.79 25 220 0 15 3675 25 41251 10895 3.1 20 6 2 7 28% 16592 78237 16782 51%
c v  8.83 25 220 0 15 3675 25 41251 9921 3.1 20 6 2 7 28% 16595 78237 16782 51%
c w  8.86 25 220 0 15 3675 25 41251 9919 3.1 20 6 2 7 28% 16595 78237 16782 51%
c x  8.90 25 220 0 15 3675 25 41251 9917 3.1 20 6 2 7 28% 16596 74382 16782 51%
c =  9.06 25 220 0 15 3675 25 41251 9917 3.1 20 6 2 7 28% 16782 74382 16689 51%
c d  9.06 25 220 0 15 3675 25 41251 9853 3.1 20 6 2 7 28% 16571 74382 16689 51%
c t  9.07 25 220 0 15 3675 25 41251 9853 3.1 20 6 2 7 28% 16543 74382 16689 51%
c f  9.08 25 220 0 15 3675 25 41251 9853 3.1 20 6 2 7 28% 16549 74329 16697 51%
c -  9.12 25 220 0 16 3694 25 41471 8765 3.1 20 6 2 7 28% 16553 74329 16697 51%
c -  9.57 25 216 0 17 4026 24 45471 10898 3.1 20 6 2 6 28% 16632 74328 16697 51%
c -  9.88 25 214 0 18 4263 23 49594 12966 3.1 20 6 2 6 28% 16702 74325 16697 51%
c s 10.05 25 211 0 18 4386 23 52129 14947 3.0 19 6 2 6 27% 16784 72572 16697 51%
c e 10.12 25 211 0 18 4386 23 52129 14947 3.0 19 6 2 6 27% 15168 75325 15808 48%
c
c  seconds   switched     rate         size/glue tier1    binary          remaining
c         MB   reductions   conflicts        size  tier2      irredundant
c           level   restarts      redundant    glue   trail          variables
c
c 2 10.12 25 211 0 18 4386 23 52129 14947 3.0 19 6 2 6 27% 15161 75325 15808 48%
c s 10.12 25 211 0 18 4386 23 52129 14947 3.0 19 6 2 6 27% 15168 74998 15808 48%
c e 10.13 25 211 0 18 4386 23 52129 14947 3.0 19 6 2 6 27% 15147 75032 15795 48%
c ^ 10.13 25 211 0 18 4386 23 52129 14947 3.0 19 6 2 6 27% 15147 75032 15795 48%
c - 10.34 25 210 0 19 4572 23 53839 13166 3.0 19 6 2 6 27% 15171 75032 15795 48%
c - 10.63 25 203 0 20 4775 22 58197 14901 3.0 19 6 2 6 27% 15267 75028 15795 48%
c d 10.69 25 202 0 20 4825 22 58882 15435 3.0 19 6 2 6 27% 15244 75028 15778 48%
c u 10.74 25 202 0 20 4825 22 58882 13388 3.0 19 6 2 6 27% 15270 75028 15778 48%
c v 10.77 25 202 0 20 4825 22 58882 12640 3.0 19 6 2 6 27% 15274 75028 15778 48%
c w 10.79 25 202 0 20 4825 22 58882 12630 3.0 19 6 2 6 27% 15274 75028 15778 48%
c x 10.83 25 202 0 20 4825 22 58882 12625 3.0 19 6 2 6 27% 15278 74879 15778 48%
c = 11.00 25 202 0 20 4825 22 58882 12625 3.0 19 6 2 6 27% 16254 74879 15290 47%
c d 11.00 25 202 0 20 4825 22 58882 12176 3.0 19 6 2 6 27% 15223 74879 15287 47%
c t 11.01 25 202 0 20 4825 22 58882 12176 3.0 19 6 2 6 27% 15006 74879 15287 47%
c f 11.05 25 202 0 20 4825 22 58882 12176 3.0 19 6 2 6 27% 15117 74377 15352 47%
c c 11.09 25 202 0 20 4825 22 58882 12158 3.0 19 6 2 6 27% 15129 74323 15345 47%
c d 11.09 25 202 0 20 4825 22 58882 12158 3.0 19 6 2 6 27% 15115 74323 15345 47%
c u 11.14 25 202 0 20 4825 22 58882 11158 3.0 19 6 2 6 27% 15124 74323 15345 47%
c v 11.17 25 202 0 20 4825 22 58882 10474 3.0 19 6 2 6 27% 15125 74323 15345 47%
c w 11.19 25 202 0 20 4825 22 58882 10441 3.0 19 6 2 6 27% 15125 74323 15345 47%
c
c  seconds   switched     rate         size/glue tier1    binary          remaining
c         MB   reductions   conflicts        size  tier2      irredundant
c           level   restarts      redundant    glue   trail          variables
c
c x 11.22 25 202 0 20 4825 22 58882 10440 3.0 19 6 2 6 27% 15135 73855 15345 47%
c = 11.39 25 202 0 20 4825 22 58882 10440 3.0 19 6 2 6 27% 15539 73855 15143 46%
c d 11.39 25 202 0 20 4825 22 58882 10321 3.0 19 6 2 6 27% 15123 73855 15143 46%
c t 11.40 25 202 0 20 4825 22 58882 10321 3.0 19 6 2 6 27% 15058 73855 15143 46%
c f 11.41 25 202 0 20 4825 22 58882 10321 3.0 19 6 2 6 27% 15078 73736 15159 46%
c - 11.76 25 200 0 21 5148 22 62669 12182 3.0 19 6 2 6 27% 15133 73732 15159 46%
c - 12.21 25 197 0 22 5511 22 67251 14590 3.0 19 6 2 6 27% 15185 73732 15159 46%
c o 12.60 25 196 0 22 5828 22 70325 17455 2.9 19 6 2 6 28% 15228 73732 15159 46%
c - 12.92 25 195 0 23 6085 22 71944 16759 3.0 19 6 2 6 28% 15246 73732 15159 46%
c - 13.46 25 193 0 24 6528 22 76741 18548 3.0 20 6 2 5 28% 15304 73731 15159 46%
c d 13.79 25 190 0 24 6743 22 79945 21414 3.0 19 6 2 5 28% 15288 73731 15136 46%
c u 13.86 25 190 0 24 6743 22 79945 18613 3.0 19 6 2 5 28% 15309 73731 15136 46%
c v 13.91 25 190 0 24 6743 22 79945 17445 3.0 19 6 2 5 28% 15315 73731 15136 46%
c w 13.94 25 190 0 24 6743 22 79945 17431 3.0 19 6 2 5 28% 15315 73731 15136 46%
c x 14.00 25 190 0 24 6743 22 79945 17419 3.0 19 6 2 5 28% 15423 71313 15136 46%
c = 14.09 25 190 0 24 6743 22 79945 17419 3.0 19 6 2 5 28% 15547 71313 15074 46%
c d 14.10 25 190 0 24 6743 22 79945 17388 3.0 19 6 2 5 28% 15403 71313 15066 46%
c t 14.11 25 190 0 24 6743 22 79945 17388 3.0 19 6 2 5 28% 15314 71313 15066 46%
c f 14.12 25 190 0 24 6743 22 79945 17388 3.0 19 6 2 5 28% 15322 71242 15077 46%
c u 14.18 25 190 0 24 6743 22 79945 16212 3.0 19 6 2 5 28% 15329 71242 15077 46%
c
c  seconds   switched     rate         size/glue tier1    binary          remaining
c         MB   reductions   conflicts        size  tier2      irredundant
c           level   restarts      redundant    glue   trail          variables
c
c v 14.23 25 190 0 24 6743 22 79945 15198 3.0 19 6 2 5 28% 15329 71242 15077 46%
c w 14.27 25 190 0 24 6743 22 79945 15191 3.0 19 6 2 5 28% 15329 71242 15077 46%
c x 14.32 25 190 0 24 6743 22 79945 15183 3.0 19 6 2 5 28% 15442 69434 15077 46%
c = 14.62 25 190 0 24 6743 22 79945 15183 3.0 19 6 2 5 28% 15818 69416 14889 46%
c d 14.62 25 190 0 24 6743 22 79945 14881 3.0 19 6 2 5 28% 15410 69416 14889 46%
c t 14.64 25 190 0 24 6743 22 79945 14881 3.0 19 6 2 5 28% 15307 69416 14889 46%
c f 14.65 25 190 0 24 6743 22 79945 14881 3.0 19 6 2 5 28% 15321 69345 14898 46%
c - 14.81 25 188 0 25 6858 22 81639 14501 3.0 19 6 2 5 28% 15340 69343 14898 46%
c - 15.59 25 186 0 26 7552 22 86639 17011 3.0 20 7 2 5 28% 15376 69337 14898 46%
c - 16.17 25 181 0 27 8002 22 91738 19246 3.0 20 7 2 5 28% 15428 69335 14898 46%
c s 16.70 25 178 0 27 8382 22 95795 22996 3.0 20 7 2 5 29% 15466 67820 14898 46%
c e 16.82 25 178 0 27 8382 22 95795 22996 3.0 20 7 2 5 29% 12237 77772 12861 39%
c 2 16.82 25 178 0 27 8382 22 95795 22996 3.0 20 7 2 5 29% 12229 77772 12861 39%
c s 16.86 25 178 0 27 8382 22 95795 22996 3.0 20 7 2 5 29% 12273 76446 12861 39%
c e 16.89 25 178 0 27 8382 22 95795 22996 3.0 20 7 2 5 29% 12159 76669 12827 39%
c ^ 16.89 25 178 0 27 8382 22 95795 22996 3.0 20 7 2 5 29% 12159 76669 12827 39%
c - 17.30 25 177 0 28 8572 22 96937 15607 3.0 20 7 2 5 29% 12162 76669 12827 39%
c - 18.75 25 175 0 29 9175 22 102229 18219 3.0 20 7 2 5 29% 12196 76667 12827 39%
c u 19.43 25 174 0 29 9366 22 104570 17296 3.0 20 7 2 5 29% 12243 76667 12827 39%
c v 19.52 25 174 0 29 9366 22 104570 15472 3.0 20 7 2 5 29% 12246 76667 12827 39%
c
c  seconds   switched     rate          size/glue tier1    binary          remaining
c         MB   reductions   conflicts         size  tier2      irredundant
c           level   restarts       redundant    glue   trail          variables
c
c w 19.64 25 174 0 29 9366 22 104570 15430 3.0 20 7 2 5 29% 12246 76667 12827 39%
c x 19.78 25 174 0 29 9366 22 104570 15420 3.0 20 7 2 5 29% 12341 76133 12827 39%
c = 20.19 25 174 0 29 9366 22 104570 15420 3.0 20 7 2 5 29% 12363 76125 12816 39%
c d 20.19 25 174 0 29 9366 22 104570 15404 3.0 20 7 2 5 29% 12328 76125 12816 39%
c t 20.21 25 174 0 29 9366 22 104570 15404 3.0 20 7 2 5 29% 12263 76125 12816 39%
c f 20.30 25 174 0 29 9366 22 104570 15404 3.0 20 7 2 5 29% 12284 75999 12826 39%
c u 20.38 25 174 0 29 9366 22 104570 14623 3.0 20 7 2 5 29% 12291 75999 12826 39%
c v 20.43 25 174 0 29 9366 22 104570 14228 3.0 20 7 2 5 29% 12291 75999 12826 39%
c w 20.55 25 174 0 29 9366 22 104570 13990 3.0 20 7 2 5 29% 12292 75999 12826 39%
c x 20.67 25 174 0 29 9366 22 104570 13976 3.0 20 7 2 5 29% 12319 75395 12826 39%
c = 21.09 25 174 0 29 9366 22 104570 13976 3.0 20 7 2 5 29% 12333 75395 12819 39%
c d 21.09 25 174 0 29 9366 22 104570 13976 3.0 20 7 2 5 29% 12318 75395 12819 39%
c t 21.11 25 174 0 29 9366 22 104570 13976 3.0 20 7 2 5 29% 12308 75395 12819 39%
c - 21.59 25 173 0 30 9672 22 107614 15061 3.0 20 7 2 5 29% 12325 75395 12819 39%
c o 21.97 25 170 0 30 9907 22 110329 17589 3.0 20 7 2 5 29% 12342 75395 12819 39%
c - 22.49 25 168 0 31 10182 22 113091 17925 2.9 20 7 2 5 29% 12357 75395 12819 39%
c - 23.47 25 166 0 32 10606 21 118659 20254 2.9 20 7 2 5 29% 12392 75394 12819 39%
c i 23.47 25 166 0 32 10606 21 118787 20333 2.9 20 7 2 5 29% 12399 75394 12818 39%
c i 24.64 25 163 0 32 11074 21 123817 25013 2.9 20 7 2 5 29% 12433 75394 12817 39%
c - 24.70 25 162 0 33 11095 21 124315 22117 2.9 20 7 2 5 29% 12433 75394 12817 39%
c
c  seconds   switched      rate          size/glue tier1    binary          remaining
c         MB   reductions    conflicts         size  tier2      irredundant
c           level   restarts        redundant    glue   trail          variables
c
c i 25.58 25 159 0 33 11517 21 129104 26564 2.9 20 7 2 5 30% 12464 75394 12816 39%
c i 25.58 25 159 0 33 11517 21 129107 26563 2.9 20 7 2 5 30% 12465 75394 12806 39%
c - 25.71 25 158 0 34 11584 21 130059 23634 2.9 20 7 2 5 30% 12474 75394 12806 39%
c d 26.10 25 155 0 34 11810 21 132815 26151 2.9 20 7 2 5 30% 12522 75290 12799 39%
c d 26.10 25 155 0 34 11810 21 132815 26130 2.9 20 7 2 5 30% 12473 75290 12775 39%
c u 26.21 25 155 0 34 11810 21 132815 23067 2.9 20 7 2 5 30% 12521 75290 12771 39%
c v 26.30 25 155 0 34 11810 21 132815 21186 2.9 20 7 2 5 30% 12521 75290 12771 39%
c w 26.35 25 155 0 34 11810 21 132815 21174 2.9 20 7 2 5 30% 12521 75290 12771 39%
c x 26.47 25 155 0 34 11810 21 132815 21167 2.9 20 7 2 5 30% 12612 74603 12766 39%
c = 26.65 25 155 0 34 11810 21 132815 21167 2.9 20 7 2 5 30% 12880 74328 12579 38%
c } 26.65 25 155 0 34 11810 21 132815 21167 2.9 20 7 2 5 30% 12880 74328 12712 39%
c 0 26.65 25 155 0 34 11810 21 132815 21167 2.9 20 7 2 5 30% 12880 74328 12712 39%
c
c ---- [ result ] ------------------------------------------------------------
c
s UNSATISFIABLE
c
c ---- [ profiling ] ---------------------------------------------------------
c
c          18.43   69.14 %  search
c          18.43   69.14 %  focused
c           7.82   29.33 %  simplify
c           7.48   28.05 %  probe
c           3.02   11.34 %  sweep
c           2.85   10.70 %  vivify
c           0.59    2.22 %  factor
c           0.56    2.09 %  eliminate
c           0.46    1.72 %  congruence
c           0.39    1.45 %  substitute
c           0.35    1.33 %  preprocess
c           0.17    0.64 %  reduce
c           0.13    0.48 %  fastel
c           0.11    0.43 %  subsume
c           0.11    0.42 %  transitive
c           0.05    0.20 %  backbone
c           0.03    0.12 %  lucky
c           0.02    0.09 %  parse
c =============================================
c          26.65  100.00 %  total
c
c ---- [ statistics ] --------------------------------------------------------
c
c chronological:                         4752                4 %  conflicts
c conflicts:                           132815             4983.32 per second
c congruent:                             2724                8 %  variables
c decisions:                          2738437               20.62 per conflict
c eliminated:                           14456               44 %  variables
c factored:                              3621               11 %  variables
c fast_eliminated:                       8579               59 %  eliminated
c fast_strengthened:                      134                6 %  per strengthened
c fast_subsumed:                          194                1 %  per subsumed
c iterations:                               6                0 %  variables
c propagations:                     132100410          4956505    per second
c reductions:                              34             3906    interval
c reordered:                                5            26563    interval
c restarts:                             11810               11    interval
c strengthened:                          2133                0 %  checks
c substituted:                           9067               28 %  variables
c subsumed:                             15527                1 %  checks
c switched:                                 0                0    interval
c vivified:                             75591               16 %  checks
c
c ---- [ glue usage ] --------------------------------------------------------
c
c focused glue 2 used 78138 clauses 24.25% accumulated 72.77% tier1
c focused glue 3 used 34480 clauses 10.70% accumulated 83.46%
c focused glue 4 used 15421 clauses  4.78% accumulated 88.25%
c focused glue 5 used  9793 clauses  3.04% accumulated 91.29% tier2
c
c ---- [ resources ] ---------------------------------------------------------
c
c maximum-resident-set-size:         27414528 bytes         26 MB
c process-time:                            27s              26.65 seconds
c
c ---- [ shutting down ] -----------------------------------------------------
c
c exit 20
